# Node Net
 40   1
400   1
 20   1
1569   1
1000   2
 16   2
 30   2
1586   2
1081   3
800   3
 35   3
  3   3
 26   4
1240   4
1588   4
1241   4
1582   5
1200   5
1561   6
1575   6
  2   7
 21   7
600   8
401   8
241   9
1567   9
1161  10
1521  10
